GLPSOL--GLPK LP/MIP Solver 5.0
Parameter(s) specified in the command line:
 --lp ../modeles/15_49.lp --log 15_49.log
Reading problem data from '../modeles/15_49.lp'...
796 rows, 1500 columns, 5220 non-zeros
735 integer variables, all of which are binary
2317 lines were read
GLPK Integer Optimizer 5.0
796 rows, 1500 columns, 5220 non-zeros
735 integer variables, all of which are binary
Preprocessing...
750 constraint coefficient(s) were reduced
796 rows, 1485 columns, 5205 non-zeros
735 integer variables, all of which are binary
Scaling...
 A: min|aij| =  1.666e-03  max|aij| =  4.000e+00  ratio =  2.401e+03
GM: min|aij| =  1.429e-01  max|aij| =  7.000e+00  ratio =  4.900e+01
EQ: min|aij| =  2.041e-02  max|aij| =  1.000e+00  ratio =  4.900e+01
2N: min|aij| =  1.562e-02  max|aij| =  1.754e+00  ratio =  1.122e+02
Constructing initial basis...
Size of triangular part is 796
Solving LP relaxation...
GLPK Simplex Optimizer 5.0
796 rows, 1485 columns, 5205 non-zeros
      0: obj =   3.000000000e+01 inf =   7.450e+01 (31)
    134: obj =   4.877083333e-01 inf =   0.000e+00 (0)
*   378: obj =  -3.827380952e+00 inf =   1.025e-14 (0)
OPTIMAL LP SOLUTION FOUND
Integer optimization begins...
Long-step dual simplex will be used
+   378: mip =     not found yet >=              -inf        (1; 0)
+   399: >>>>>  -3.827380952e+00 >=  -3.827380952e+00 < 0.1% (14; 0)
+   399: mip =  -3.827380952e+00 >=     tree is empty   0.0% (0; 27)
INTEGER OPTIMAL SOLUTION FOUND
Time used:   0.0 secs
Memory used: 2.3 Mb (2383109 bytes)
